c description: Random 3-CNF over 12 variables and 36 clauses
p cnf 12 36
-5 -9 -10 0
8 -11 12 0
7 -11 12 0
-4 5 8 0
3 9 11 0
-3 6 8 0
1 -10 -11 0
-4 9 -12 0
2 4 -5 0
-3 4 11 0
-4 10 -11 0
-3 -5 -8 0
-8 11 -12 0
-3 4 -12 0
1 -2 5 0
4 -5 -9 0
6 8 9 0
2 9 -11 0
-3 10 -11 0
-1 2 -9 0
-3 -4 12 0
-8 9 -10 0
-2 5 6 0
3 -8 -12 0
-4 -6 -10 0
-4 -9 -11 0
-7 11 12 0
-1 -4 6 0
-5 -8 12 0
1 -2 6 0
2 10 -11 0
4 7 -12 0
2 -4 -9 0
-4 8 -9 0
1 -2 10 0
4 -9 -10 0